\ENCODING=ISO-8859-1
\Problem name: 

Minimize
 obj: 6.5 i_0_0_0 + 6.2 i_1_0_0 + 1.2 i_2_0_0 + 0.5 i_3_0_0 + 0.9 i_4_0_0
      + 6.5 i_5_0_0 + 12.7 i_6_0_0 + 6.2 i_7_0_0 + 5.85 i_0_1_0 + 5.58 i_1_1_0
      + 1.08 i_2_1_0 + 0.45 i_3_1_0 + 0.81 i_4_1_0 + 5.85 i_5_1_0
      + 11.43 i_6_1_0 + 5.58 i_7_1_0 + 5.265 i_0_2_0 + 5.022 i_1_2_0
      + 0.972 i_2_2_0 + 0.405 i_3_2_0 + 0.729 i_4_2_0 + 5.265 i_5_2_0
      + 10.287 i_6_2_0 + 5.022 i_7_2_0 + 4.7385 i_0_3_0 + 4.5198 i_1_3_0
      + 0.8748 i_2_3_0 + 0.3645 i_3_3_0 + 0.6561 i_4_3_0 + 4.7385 i_5_3_0
      + 9.2583 i_6_3_0 + 4.5198 i_7_3_0 + 4.26465 i_0_4_0 + 4.06782 i_1_4_0
      + 0.78732 i_2_4_0 + 0.32805 i_3_4_0 + 0.59049 i_4_4_0 + 4.26465 i_5_4_0
      + 8.33247 i_6_4_0 + 4.06782 i_7_4_0 + 3.838185 i_0_5_0 + 3.661038 i_1_5_0
      + 0.708588 i_2_5_0 + 0.295245 i_3_5_0 + 0.531441 i_4_5_0
      + 3.838185 i_5_5_0 + 7.499223 i_6_5_0 + 3.661038 i_7_5_0
      + 52.0428695457002 p_0_0_0 + 19.2983673313446 p_1_0_0
      + 75.3323776498241 p_2_0_0 + 83.7821827258318 p_3_0_0
      + 69.8674719605793 p_4_0_0 + 44.0441481739219 p_5_0_0
      + 8.62348578741013 p_6_0_0 + 17.9585274992273 p_7_0_0
      + 46.8385825911302 p_0_1_0 + 17.3685305982101 p_1_1_0
      + 67.7991398848417 p_2_1_0 + 75.4039644532486 p_3_1_0
      + 62.8807247645213 p_4_1_0 + 39.6397333565297 p_5_1_0
      + 7.76113720866912 p_6_1_0 + 16.1626747493046 p_7_1_0
      + 42.1547243320172 p_0_2_0 + 15.6316775383891 p_1_2_0
      + 61.0192258963575 p_2_2_0 + 67.8635680079237 p_3_2_0
      + 56.5926522880692 p_4_2_0 + 35.6757600208767 p_5_2_0
      + 6.9850234878022 p_6_2_0 + 14.5464072743741 p_7_2_0
      + 37.9392518988155 p_0_3_0 + 14.0685097845502 p_1_3_0
      + 54.9173033067218 p_2_3_0 + 61.0772112071314 p_3_3_0
      + 50.9333870592623 p_4_3_0 + 32.1081840187891 p_5_3_0
      + 6.28652113902198 p_6_3_0 + 13.0917665469367 p_7_3_0
      + 34.1453267089339 p_0_4_0 + 12.6616588060952 p_1_4_0
      + 49.4255729760496 p_2_4_0 + 54.9694900864182 p_3_4_0
      + 45.8400483533361 p_4_4_0 + 28.8973656169101 p_5_4_0
      + 5.65786902511979 p_6_4_0 + 11.782589892243 p_7_4_0
      + 30.7307940380405 p_0_5_0 + 11.3954929254857 p_1_5_0
      + 44.4830156784447 p_2_5_0 + 49.4725410777764 p_3_5_0
      + 41.2560435180024 p_4_5_0 + 26.0076290552191 p_5_5_0
      + 5.09208212260781 p_6_5_0 + 10.6043309030187 p_7_5_0 + 248 b_5_0_0
      + 267 b_6_0_0 + 240 b_7_0_0 + 223.2 b_5_1_0 + 240.3 b_6_1_0 + 216 b_7_1_0
      + 200.88 b_5_2_0 + 216.27 b_6_2_0 + 194.4 b_7_2_0 + 180.792 b_5_3_0
      + 194.643 b_6_3_0 + 174.96 b_7_3_0 + 162.7128 b_5_4_0 + 175.1787 b_6_4_0
      + 157.464 b_7_4_0 + 590.49 b_5_5_0 + 590.49 b_6_5_0 + 590.49 b_7_5_0
Subject To
 c1:   - q_p_t_s_5_0_0 - q_p_t_s_6_0_0 - i_0_0_0  = -578
 c2:   q_p_t_s_0_0_0 - q_p_t_s_5_0_0 - q_p_t_s_6_0_0 - q_p_t_s_5_1_0
       - q_p_t_s_6_1_0 - i_0_1_0  = -578
 c3:   q_p_t_s_0_0_0 - q_p_t_s_5_0_0 - q_p_t_s_6_0_0 + q_p_t_s_0_1_0
       - q_p_t_s_5_1_0 - q_p_t_s_6_1_0 - q_p_t_s_5_2_0 - q_p_t_s_6_2_0
       - i_0_2_0  = -578
 c4:   q_p_t_s_0_0_0 - q_p_t_s_5_0_0 - q_p_t_s_6_0_0 + q_p_t_s_0_1_0
       - q_p_t_s_5_1_0 - q_p_t_s_6_1_0 + q_p_t_s_0_2_0 - q_p_t_s_5_2_0
       - q_p_t_s_6_2_0 - q_p_t_s_5_3_0 - q_p_t_s_6_3_0 - i_0_3_0  = -578
 c5:   q_p_t_s_0_0_0 - q_p_t_s_5_0_0 - q_p_t_s_6_0_0 + q_p_t_s_0_1_0
       - q_p_t_s_5_1_0 - q_p_t_s_6_1_0 + q_p_t_s_0_2_0 - q_p_t_s_5_2_0
       - q_p_t_s_6_2_0 + q_p_t_s_0_3_0 - q_p_t_s_5_3_0 - q_p_t_s_6_3_0
       - q_p_t_s_5_4_0 - q_p_t_s_6_4_0 - i_0_4_0  = -578
 c6:   q_p_t_s_0_0_0 - q_p_t_s_5_0_0 - q_p_t_s_6_0_0 + q_p_t_s_0_1_0
       - q_p_t_s_5_1_0 - q_p_t_s_6_1_0 + q_p_t_s_0_2_0 - q_p_t_s_5_2_0
       - q_p_t_s_6_2_0 + q_p_t_s_0_3_0 - q_p_t_s_5_3_0 - q_p_t_s_6_3_0
       + q_p_t_s_0_4_0 - q_p_t_s_5_4_0 - q_p_t_s_6_4_0 - q_p_t_s_5_5_0
       - q_p_t_s_6_5_0 - i_0_5_0  = -578
 c7:   - q_p_t_s_6_0_0 - q_p_t_s_7_0_0 - i_1_0_0  = -203
 c8:   q_p_t_s_1_0_0 - q_p_t_s_6_0_0 - q_p_t_s_7_0_0 - q_p_t_s_6_1_0
       - q_p_t_s_7_1_0 - i_1_1_0  = -203
 c9:   q_p_t_s_1_0_0 - q_p_t_s_6_0_0 - q_p_t_s_7_0_0 + q_p_t_s_1_1_0
       - q_p_t_s_6_1_0 - q_p_t_s_7_1_0 - q_p_t_s_6_2_0 - q_p_t_s_7_2_0
       - i_1_2_0  = -203
 c10:  q_p_t_s_1_0_0 - q_p_t_s_6_0_0 - q_p_t_s_7_0_0 + q_p_t_s_1_1_0
       - q_p_t_s_6_1_0 - q_p_t_s_7_1_0 + q_p_t_s_1_2_0 - q_p_t_s_6_2_0
       - q_p_t_s_7_2_0 - q_p_t_s_6_3_0 - q_p_t_s_7_3_0 - i_1_3_0  = -203
 c11:  q_p_t_s_1_0_0 - q_p_t_s_6_0_0 - q_p_t_s_7_0_0 + q_p_t_s_1_1_0
       - q_p_t_s_6_1_0 - q_p_t_s_7_1_0 + q_p_t_s_1_2_0 - q_p_t_s_6_2_0
       - q_p_t_s_7_2_0 + q_p_t_s_1_3_0 - q_p_t_s_6_3_0 - q_p_t_s_7_3_0
       - q_p_t_s_6_4_0 - q_p_t_s_7_4_0 - i_1_4_0  = -203
 c12:  q_p_t_s_1_0_0 - q_p_t_s_6_0_0 - q_p_t_s_7_0_0 + q_p_t_s_1_1_0
       - q_p_t_s_6_1_0 - q_p_t_s_7_1_0 + q_p_t_s_1_2_0 - q_p_t_s_6_2_0
       - q_p_t_s_7_2_0 + q_p_t_s_1_3_0 - q_p_t_s_6_3_0 - q_p_t_s_7_3_0
       + q_p_t_s_1_4_0 - q_p_t_s_6_4_0 - q_p_t_s_7_4_0 - q_p_t_s_6_5_0
       - q_p_t_s_7_5_0 - i_1_5_0  = -203
 c13:  - q_p_t_s_0_0_0 - q_p_t_s_1_0_0 - i_2_0_0  = -200
 c14:  - q_p_t_s_0_0_0 - q_p_t_s_1_0_0 + q_p_t_s_2_0_0 - q_p_t_s_0_1_0
       - q_p_t_s_1_1_0 - i_2_1_0  = -200
 c15:  - q_p_t_s_0_0_0 - q_p_t_s_1_0_0 + q_p_t_s_2_0_0 - q_p_t_s_0_1_0
       - q_p_t_s_1_1_0 + q_p_t_s_2_1_0 - q_p_t_s_0_2_0 - q_p_t_s_1_2_0
       - i_2_2_0  = -200
 c16:  - q_p_t_s_0_0_0 - q_p_t_s_1_0_0 + q_p_t_s_2_0_0 - q_p_t_s_0_1_0
       - q_p_t_s_1_1_0 + q_p_t_s_2_1_0 - q_p_t_s_0_2_0 - q_p_t_s_1_2_0
       + q_p_t_s_2_2_0 - q_p_t_s_0_3_0 - q_p_t_s_1_3_0 - i_2_3_0  = -200
 c17:  - q_p_t_s_0_0_0 - q_p_t_s_1_0_0 + q_p_t_s_2_0_0 - q_p_t_s_0_1_0
       - q_p_t_s_1_1_0 + q_p_t_s_2_1_0 - q_p_t_s_0_2_0 - q_p_t_s_1_2_0
       + q_p_t_s_2_2_0 - q_p_t_s_0_3_0 - q_p_t_s_1_3_0 + q_p_t_s_2_3_0
       - q_p_t_s_0_4_0 - q_p_t_s_1_4_0 - i_2_4_0  = -200
 c18:  - q_p_t_s_0_0_0 - q_p_t_s_1_0_0 + q_p_t_s_2_0_0 - q_p_t_s_0_1_0
       - q_p_t_s_1_1_0 + q_p_t_s_2_1_0 - q_p_t_s_0_2_0 - q_p_t_s_1_2_0
       + q_p_t_s_2_2_0 - q_p_t_s_0_3_0 - q_p_t_s_1_3_0 + q_p_t_s_2_3_0
       - q_p_t_s_0_4_0 - q_p_t_s_1_4_0 + q_p_t_s_2_4_0 - q_p_t_s_0_5_0
       - q_p_t_s_1_5_0 - i_2_5_0  = -200
 c19:  - q_p_t_s_0_0_0 - q_p_t_s_1_0_0 - i_3_0_0  = -769
 c20:  - q_p_t_s_0_0_0 - q_p_t_s_1_0_0 + q_p_t_s_3_0_0 - q_p_t_s_0_1_0
       - q_p_t_s_1_1_0 - i_3_1_0  = -769
 c21:  - q_p_t_s_0_0_0 - q_p_t_s_1_0_0 + q_p_t_s_3_0_0 - q_p_t_s_0_1_0
       - q_p_t_s_1_1_0 + q_p_t_s_3_1_0 - q_p_t_s_0_2_0 - q_p_t_s_1_2_0
       - i_3_2_0  = -769
 c22:  - q_p_t_s_0_0_0 - q_p_t_s_1_0_0 + q_p_t_s_3_0_0 - q_p_t_s_0_1_0
       - q_p_t_s_1_1_0 + q_p_t_s_3_1_0 - q_p_t_s_0_2_0 - q_p_t_s_1_2_0
       + q_p_t_s_3_2_0 - q_p_t_s_0_3_0 - q_p_t_s_1_3_0 - i_3_3_0  = -769
 c23:  - q_p_t_s_0_0_0 - q_p_t_s_1_0_0 + q_p_t_s_3_0_0 - q_p_t_s_0_1_0
       - q_p_t_s_1_1_0 + q_p_t_s_3_1_0 - q_p_t_s_0_2_0 - q_p_t_s_1_2_0
       + q_p_t_s_3_2_0 - q_p_t_s_0_3_0 - q_p_t_s_1_3_0 + q_p_t_s_3_3_0
       - q_p_t_s_0_4_0 - q_p_t_s_1_4_0 - i_3_4_0  = -769
 c24:  - q_p_t_s_0_0_0 - q_p_t_s_1_0_0 + q_p_t_s_3_0_0 - q_p_t_s_0_1_0
       - q_p_t_s_1_1_0 + q_p_t_s_3_1_0 - q_p_t_s_0_2_0 - q_p_t_s_1_2_0
       + q_p_t_s_3_2_0 - q_p_t_s_0_3_0 - q_p_t_s_1_3_0 + q_p_t_s_3_3_0
       - q_p_t_s_0_4_0 - q_p_t_s_1_4_0 + q_p_t_s_3_4_0 - q_p_t_s_0_5_0
       - q_p_t_s_1_5_0 - i_3_5_0  = -769
 c25:  - q_p_t_s_0_0_0 - q_p_t_s_1_0_0 - i_4_0_0  = -822
 c26:  - q_p_t_s_0_0_0 - q_p_t_s_1_0_0 + q_p_t_s_4_0_0 - q_p_t_s_0_1_0
       - q_p_t_s_1_1_0 - i_4_1_0  = -822
 c27:  - q_p_t_s_0_0_0 - q_p_t_s_1_0_0 + q_p_t_s_4_0_0 - q_p_t_s_0_1_0
       - q_p_t_s_1_1_0 + q_p_t_s_4_1_0 - q_p_t_s_0_2_0 - q_p_t_s_1_2_0
       - i_4_2_0  = -822
 c28:  - q_p_t_s_0_0_0 - q_p_t_s_1_0_0 + q_p_t_s_4_0_0 - q_p_t_s_0_1_0
       - q_p_t_s_1_1_0 + q_p_t_s_4_1_0 - q_p_t_s_0_2_0 - q_p_t_s_1_2_0
       + q_p_t_s_4_2_0 - q_p_t_s_0_3_0 - q_p_t_s_1_3_0 - i_4_3_0  = -822
 c29:  - q_p_t_s_0_0_0 - q_p_t_s_1_0_0 + q_p_t_s_4_0_0 - q_p_t_s_0_1_0
       - q_p_t_s_1_1_0 + q_p_t_s_4_1_0 - q_p_t_s_0_2_0 - q_p_t_s_1_2_0
       + q_p_t_s_4_2_0 - q_p_t_s_0_3_0 - q_p_t_s_1_3_0 + q_p_t_s_4_3_0
       - q_p_t_s_0_4_0 - q_p_t_s_1_4_0 - i_4_4_0  = -822
 c30:  - q_p_t_s_0_0_0 - q_p_t_s_1_0_0 + q_p_t_s_4_0_0 - q_p_t_s_0_1_0
       - q_p_t_s_1_1_0 + q_p_t_s_4_1_0 - q_p_t_s_0_2_0 - q_p_t_s_1_2_0
       + q_p_t_s_4_2_0 - q_p_t_s_0_3_0 - q_p_t_s_1_3_0 + q_p_t_s_4_3_0
       - q_p_t_s_0_4_0 - q_p_t_s_1_4_0 + q_p_t_s_4_4_0 - q_p_t_s_0_5_0
       - q_p_t_s_1_5_0 - i_4_5_0  = -822
 c31:  - i_5_0_0 + b_5_0_0  = 174
 c32:  q_p_t_s_5_0_0 - i_5_1_0 + b_5_1_0  = 625
 c33:  q_p_t_s_5_0_0 + q_p_t_s_5_1_0 - i_5_2_0 + b_5_2_0  = 1014
 c34:  q_p_t_s_5_0_0 + q_p_t_s_5_1_0 + q_p_t_s_5_2_0 - i_5_3_0 + b_5_3_0
        = 1439
 c35:  q_p_t_s_5_0_0 + q_p_t_s_5_1_0 + q_p_t_s_5_2_0 + q_p_t_s_5_3_0 - i_5_4_0
       + b_5_4_0  = 1439
 c36:  q_p_t_s_5_0_0 + q_p_t_s_5_1_0 + q_p_t_s_5_2_0 + q_p_t_s_5_3_0
       + q_p_t_s_5_4_0 - i_5_5_0 + b_5_5_0  = 1860
 c37:  - i_6_0_0 + b_6_0_0  = 45
 c38:  q_p_t_s_6_0_0 - i_6_1_0 + b_6_1_0  = 45
 c39:  q_p_t_s_6_0_0 + q_p_t_s_6_1_0 - i_6_2_0 + b_6_2_0  = 127
 c40:  q_p_t_s_6_0_0 + q_p_t_s_6_1_0 + q_p_t_s_6_2_0 - i_6_3_0 + b_6_3_0  = 197
 c41:  q_p_t_s_6_0_0 + q_p_t_s_6_1_0 + q_p_t_s_6_2_0 + q_p_t_s_6_3_0 - i_6_4_0
       + b_6_4_0  = 270
 c42:  q_p_t_s_6_0_0 + q_p_t_s_6_1_0 + q_p_t_s_6_2_0 + q_p_t_s_6_3_0
       + q_p_t_s_6_4_0 - i_6_5_0 + b_6_5_0  = 358
 c43:  - i_7_0_0 + b_7_0_0  = -28
 c44:  q_p_t_s_7_0_0 - i_7_1_0 + b_7_1_0  = 97
 c45:  q_p_t_s_7_0_0 + q_p_t_s_7_1_0 - i_7_2_0 + b_7_2_0  = 229
 c46:  q_p_t_s_7_0_0 + q_p_t_s_7_1_0 + q_p_t_s_7_2_0 - i_7_3_0 + b_7_3_0  = 362
 c47:  q_p_t_s_7_0_0 + q_p_t_s_7_1_0 + q_p_t_s_7_2_0 + q_p_t_s_7_3_0 - i_7_4_0
       + b_7_4_0  = 362
 c48:  q_p_t_s_7_0_0 + q_p_t_s_7_1_0 + q_p_t_s_7_2_0 + q_p_t_s_7_3_0
       + q_p_t_s_7_4_0 - i_7_5_0 + b_7_5_0  = 362
 c49:  5 q_p_t_s_0_0_0 <= 2682
 c50:  5 q_p_t_s_0_1_0 <= 2682
 c51:  5 q_p_t_s_0_2_0 <= 2682
 c52:  5 q_p_t_s_0_3_0 <= 2682
 c53:  5 q_p_t_s_0_4_0 <= 2682
 c54:  5 q_p_t_s_0_5_0 <= 2682
 c55:  5 q_p_t_s_1_0_0 <= 1080
 c56:  5 q_p_t_s_1_1_0 <= 1080
 c57:  5 q_p_t_s_1_2_0 <= 1080
 c58:  5 q_p_t_s_1_3_0 <= 1080
 c59:  5 q_p_t_s_1_4_0 <= 1080
 c60:  5 q_p_t_s_1_5_0 <= 1080
 c61:  2 q_p_t_s_2_0_0 <= 1504.8
 c62:  2 q_p_t_s_2_1_0 <= 1504.8
 c63:  2 q_p_t_s_2_2_0 <= 1504.8
 c64:  2 q_p_t_s_2_3_0 <= 1504.8
 c65:  2 q_p_t_s_2_4_0 <= 1504.8
 c66:  2 q_p_t_s_2_5_0 <= 1504.8
 c67:  4 q_p_t_s_3_0_0 <= 3009.6
 c68:  4 q_p_t_s_3_1_0 <= 3009.6
 c69:  4 q_p_t_s_3_2_0 <= 3009.6
 c70:  4 q_p_t_s_3_3_0 <= 3009.6
 c71:  4 q_p_t_s_3_4_0 <= 3009.6
 c72:  4 q_p_t_s_3_5_0 <= 3009.6
 c73:  3 q_p_t_s_4_0_0 <= 2257.2
 c74:  3 q_p_t_s_4_1_0 <= 2257.2
 c75:  3 q_p_t_s_4_2_0 <= 2257.2
 c76:  3 q_p_t_s_4_3_0 <= 2257.2
 c77:  3 q_p_t_s_4_4_0 <= 2257.2
 c78:  3 q_p_t_s_4_5_0 <= 2257.2
 c79:  5 q_p_t_s_5_0_0 <= 2277
 c80:  5 q_p_t_s_5_1_0 <= 2277
 c81:  5 q_p_t_s_5_2_0 <= 2277
 c82:  5 q_p_t_s_5_3_0 <= 2277
 c83:  5 q_p_t_s_5_4_0 <= 2277
 c84:  5 q_p_t_s_5_5_0 <= 2277
 c85:  3 q_p_t_s_6_0_0 <= 243
 c86:  3 q_p_t_s_6_1_0 <= 243
 c87:  3 q_p_t_s_6_2_0 <= 243
 c88:  3 q_p_t_s_6_3_0 <= 243
 c89:  3 q_p_t_s_6_4_0 <= 243
 c90:  3 q_p_t_s_6_5_0 <= 243
 c91:  3 q_p_t_s_7_0_0 <= 405
 c92:  3 q_p_t_s_7_1_0 <= 405
 c93:  3 q_p_t_s_7_2_0 <= 405
 c94:  3 q_p_t_s_7_3_0 <= 405
 c95:  3 q_p_t_s_7_4_0 <= 405
 c96:  3 q_p_t_s_7_5_0 <= 405
 c97:  q_p_t_s_0_0_0  = 200
 c98:  q_p_t_s_0_1_0  = 536.4
 c99:  q_p_t_s_0_2_0  = 536.4
 c100: q_p_t_s_0_3_0  = 536.4
 c101: q_p_t_s_0_4_0  = 0
 c102: q_p_t_s_0_5_0  = 0
 c103: q_p_t_s_1_0_0  = 0
 c104: q_p_t_s_1_1_0  = 216
 c105: q_p_t_s_1_2_0  = 216
 c106: q_p_t_s_1_3_0  = 216
 c107: q_p_t_s_1_4_0  = 0
 c108: q_p_t_s_1_5_0  = 0
 c109: q_p_t_s_2_0_0  = 752.4
 c110: q_p_t_s_2_1_0  = 752.4
 c111: q_p_t_s_2_2_0  = 752.4
 c112: q_p_t_s_2_3_0  = 0
 c113: q_p_t_s_2_4_0  = 0
 c114: q_p_t_s_2_5_0  = 0
 c115: q_p_t_s_3_0_0  = 183.4
 c116: q_p_t_s_3_1_0  = 752.4
 c117: q_p_t_s_3_2_0  = 752.4
 c118: q_p_t_s_3_3_0  = 0
 c119: q_p_t_s_3_4_0  = 0
 c120: q_p_t_s_3_5_0  = 0
 c121: q_p_t_s_4_0_0  = 130.4
 c122: q_p_t_s_4_1_0  = 752.4
 c123: q_p_t_s_4_2_0  = 752.4
 c124: q_p_t_s_4_3_0  = 0
 c125: q_p_t_s_4_4_0  = 0
 c126: q_p_t_s_4_5_0  = 0
 c127: q_p_t_s_5_0_0  = 455.4
 c128: q_p_t_s_5_1_0  = 241.6
 c129: q_p_t_s_5_2_0  = 455.4
 c130: q_p_t_s_5_3_0  = 455.4
 c131: q_p_t_s_5_4_0  = 455.4
 c132: q_p_t_s_5_5_0  = 0
 c133: q_p_t_s_6_0_0  = 81
 c134: q_p_t_s_6_1_0  = 0
 c135: q_p_t_s_6_2_0  = 81
 c136: q_p_t_s_6_3_0  = 81
 c137: q_p_t_s_6_4_0  = 81
 c138: q_p_t_s_6_5_0  = 0
 c139: q_p_t_s_7_0_0  = 122
 c140: q_p_t_s_7_1_0  = 0
 c141: q_p_t_s_7_2_0  = 135
 c142: q_p_t_s_7_3_0  = 135
 c143: q_p_t_s_7_4_0  = 135
 c144: q_p_t_s_7_5_0  = 0
 i1:  p_0_0_0 = 0 -> q_p_t_s_0_0_0  = 0
 i2:  p_1_0_0 = 0 -> q_p_t_s_1_0_0  = 0
 i3:  p_2_0_0 = 0 -> q_p_t_s_2_0_0  = 0
 i4:  p_3_0_0 = 0 -> q_p_t_s_3_0_0  = 0
 i5:  p_4_0_0 = 0 -> q_p_t_s_4_0_0  = 0
 i6:  p_5_0_0 = 0 -> q_p_t_s_5_0_0  = 0
 i7:  p_6_0_0 = 0 -> q_p_t_s_6_0_0  = 0
 i8:  p_7_0_0 = 0 -> q_p_t_s_7_0_0  = 0
 i9:  p_0_1_0 = 0 -> q_p_t_s_0_1_0  = 0
 i10: p_1_1_0 = 0 -> q_p_t_s_1_1_0  = 0
 i11: p_2_1_0 = 0 -> q_p_t_s_2_1_0  = 0
 i12: p_3_1_0 = 0 -> q_p_t_s_3_1_0  = 0
 i13: p_4_1_0 = 0 -> q_p_t_s_4_1_0  = 0
 i14: p_5_1_0 = 0 -> q_p_t_s_5_1_0  = 0
 i15: p_6_1_0 = 0 -> q_p_t_s_6_1_0  = 0
 i16: p_7_1_0 = 0 -> q_p_t_s_7_1_0  = 0
 i17: p_0_2_0 = 0 -> q_p_t_s_0_2_0  = 0
 i18: p_1_2_0 = 0 -> q_p_t_s_1_2_0  = 0
 i19: p_2_2_0 = 0 -> q_p_t_s_2_2_0  = 0
 i20: p_3_2_0 = 0 -> q_p_t_s_3_2_0  = 0
 i21: p_4_2_0 = 0 -> q_p_t_s_4_2_0  = 0
 i22: p_5_2_0 = 0 -> q_p_t_s_5_2_0  = 0
 i23: p_6_2_0 = 0 -> q_p_t_s_6_2_0  = 0
 i24: p_7_2_0 = 0 -> q_p_t_s_7_2_0  = 0
 i25: p_0_3_0 = 0 -> q_p_t_s_0_3_0  = 0
 i26: p_1_3_0 = 0 -> q_p_t_s_1_3_0  = 0
 i27: p_2_3_0 = 0 -> q_p_t_s_2_3_0  = 0
 i28: p_3_3_0 = 0 -> q_p_t_s_3_3_0  = 0
 i29: p_4_3_0 = 0 -> q_p_t_s_4_3_0  = 0
 i30: p_5_3_0 = 0 -> q_p_t_s_5_3_0  = 0
 i31: p_6_3_0 = 0 -> q_p_t_s_6_3_0  = 0
 i32: p_7_3_0 = 0 -> q_p_t_s_7_3_0  = 0
 i33: p_0_4_0 = 0 -> q_p_t_s_0_4_0  = 0
 i34: p_1_4_0 = 0 -> q_p_t_s_1_4_0  = 0
 i35: p_2_4_0 = 0 -> q_p_t_s_2_4_0  = 0
 i36: p_3_4_0 = 0 -> q_p_t_s_3_4_0  = 0
 i37: p_4_4_0 = 0 -> q_p_t_s_4_4_0  = 0
 i38: p_5_4_0 = 0 -> q_p_t_s_5_4_0  = 0
 i39: p_6_4_0 = 0 -> q_p_t_s_6_4_0  = 0
 i40: p_7_4_0 = 0 -> q_p_t_s_7_4_0  = 0
 i41: p_0_5_0 = 0 -> q_p_t_s_0_5_0  = 0
 i42: p_1_5_0 = 0 -> q_p_t_s_1_5_0  = 0
 i43: p_2_5_0 = 0 -> q_p_t_s_2_5_0  = 0
 i44: p_3_5_0 = 0 -> q_p_t_s_3_5_0  = 0
 i45: p_4_5_0 = 0 -> q_p_t_s_4_5_0  = 0
 i46: p_5_5_0 = 0 -> q_p_t_s_5_5_0  = 0
 i47: p_6_5_0 = 0 -> q_p_t_s_6_5_0  = 0
 i48: p_7_5_0 = 0 -> q_p_t_s_7_5_0  = 0
Bounds
 0 <= p_0_0_0 <= 1
 0 <= p_1_0_0 <= 1
 0 <= p_2_0_0 <= 1
 0 <= p_3_0_0 <= 1
 0 <= p_4_0_0 <= 1
 0 <= p_5_0_0 <= 1
 0 <= p_6_0_0 <= 1
 0 <= p_7_0_0 <= 1
 0 <= p_0_1_0 <= 1
 0 <= p_1_1_0 <= 1
 0 <= p_2_1_0 <= 1
 0 <= p_3_1_0 <= 1
 0 <= p_4_1_0 <= 1
 0 <= p_5_1_0 <= 1
 0 <= p_6_1_0 <= 1
 0 <= p_7_1_0 <= 1
 0 <= p_0_2_0 <= 1
 0 <= p_1_2_0 <= 1
 0 <= p_2_2_0 <= 1
 0 <= p_3_2_0 <= 1
 0 <= p_4_2_0 <= 1
 0 <= p_5_2_0 <= 1
 0 <= p_6_2_0 <= 1
 0 <= p_7_2_0 <= 1
 0 <= p_0_3_0 <= 1
 0 <= p_1_3_0 <= 1
 0 <= p_2_3_0 <= 1
 0 <= p_3_3_0 <= 1
 0 <= p_4_3_0 <= 1
 0 <= p_5_3_0 <= 1
 0 <= p_6_3_0 <= 1
 0 <= p_7_3_0 <= 1
 0 <= p_0_4_0 <= 1
 0 <= p_1_4_0 <= 1
 0 <= p_2_4_0 <= 1
 0 <= p_3_4_0 <= 1
 0 <= p_4_4_0 <= 1
 0 <= p_5_4_0 <= 1
 0 <= p_6_4_0 <= 1
 0 <= p_7_4_0 <= 1
 0 <= p_0_5_0 <= 1
 0 <= p_1_5_0 <= 1
 0 <= p_2_5_0 <= 1
 0 <= p_3_5_0 <= 1
 0 <= p_4_5_0 <= 1
 0 <= p_5_5_0 <= 1
 0 <= p_6_5_0 <= 1
 0 <= p_7_5_0 <= 1
End
